Route #1: 19 36 4 14 35 60 48 22 55
Route #2: 7 20 57 39 42 2 63 58
Route #3: 49 26 1
Route #4: 16 56 31 54 17 21 38
Route #5: 27 40 34 13 28 11
Route #6: 33 47 29 50 37 9
Route #7: 30 46 41 8 62 43 52 23 25
Route #8: 3 5 59 51 10 61 18
Route #9: 6 53 44 45 15 24 12 32
cost 1136.82177734375